(set-logic QF_LRA)
(declare-fun fluent_ready_plt1_p1_t0@1 () Bool)
(declare-fun fluent_pallet_at_plt0_p0@1 () Bool)
(declare-fun fluent_robot_at_r0_p0@0 () Bool)
(declare-fun fluent_robot_at_r0_p1@0 () Bool)
(declare-fun fluent_pallet_at_plt1_p0@1 () Bool)
(declare-fun fluent_robot_free_r0@0 () Bool)
(declare-fun fluent_pallet_at_plt0_p1@1 () Bool)
(declare-fun fluent_pallet_at_plt1_p1@1 () Bool)
(declare-fun fluent_pallet_at_plt0_p0@0 () Bool)
(declare-fun fluent_pallet_at_plt1_p0@0 () Bool)
(declare-fun fluent_robot_has_r0_plt0@1 () Bool)
(declare-fun fluent_pallet_at_plt0_p1@0 () Bool)
(declare-fun fluent_robot_has_r0_plt1@1 () Bool)
(declare-fun fluent_pallet_at_plt1_p1@0 () Bool)
(declare-fun fluent_battery_level_r0@0 () Real)
(declare-fun fluent_treated_plt0_t0@1 () Bool)
(declare-fun fluent_treated_plt1_t0@1 () Bool)
(declare-fun fluent_position_free_p0@1 () Bool)
(declare-fun fluent_position_free_p1@1 () Bool)
(declare-fun fluent_position_free_p0@0 () Bool)
(declare-fun fluent_position_free_p1@0 () Bool)
(declare-fun act_load_at_depot@1 () Bool)
(declare-fun parameter_load_at_depot_pos@1 () Real)
(declare-fun fluent_robot_has_r0_plt0@0 () Bool)
(declare-fun fluent_robot_has_r0_plt1@0 () Bool)
(declare-fun act_make_treatment@1 () Bool)
(declare-fun fluent_ready_plt0_p0_t0@0 () Bool)
(declare-fun fluent_ready_plt1_p0_t0@0 () Bool)
(declare-fun fluent_ready_plt0_p1_t0@0 () Bool)
(declare-fun fluent_ready_plt1_p1_t0@0 () Bool)
(declare-fun parameter_load_at_depot_r@1 () Real)
(declare-fun parameter_load_at_depot_pallet@1 () Real)
(declare-fun fluent_treated_plt0_t0@0 () Bool)
(declare-fun fluent_treated_plt1_t0@0 () Bool)
(declare-fun act_move@1 () Bool)
(declare-fun parameter_move_topos@1 () Real)
(declare-fun parameter_move_frompos@1 () Real)
(declare-fun act_unload_at_depot@1 () Bool)
(declare-fun parameter_unload_at_depot_pos@1 () Real)
(declare-fun parameter_move_r@1 () Real)
(declare-fun parameter_unload_at_depot_r@1 () Real)
(declare-fun parameter_unload_at_depot_pallet@1 () Real)
(declare-fun fluent_robot_at_r0_p0@1 () Bool)
(declare-fun fluent_robot_at_r0_p1@1 () Bool)
(declare-fun fluent_battery_level_r0@1 () Real)
(declare-fun act_load@1 () Bool)
(declare-fun parameter_load_t@1 () Real)
(declare-fun dur_make_treatment@1 () Real)
(declare-fun parameter_load_pos@1 () Real)
(declare-fun t@1 () Real)
(declare-fun parameter_load_pallet@1 () Real)
(declare-fun parameter_make_treatment_t@1 () Real)
(declare-fun parameter_make_treatment_pallet@1 () Real)
(declare-fun parameter_load_r@1 () Real)
(declare-fun parameter_make_treatment_r@1 () Real)
(declare-fun parameter_make_treatment_pos@1 () Real)
(declare-fun fluent_robot_free_r0@1 () Bool)
(declare-fun fluent_ready_plt0_p0_t0@1 () Bool)
(declare-fun fluent_ready_plt1_p0_t0@1 () Bool)
(declare-fun fluent_ready_plt0_p1_t0@1 () Bool)
(assert (let ((.def_0 (= parameter_make_treatment_pos@1 2.0))) (let ((.def_1 (= parameter_make_treatment_pos@1 1.0))) (let ((.def_2 (or .def_1 .def_0))) (let ((.def_3 (= parameter_make_treatment_r@1 0.0))) (let ((.def_4 (= parameter_make_treatment_pallet@1 4.0))) (let ((.def_5 (= parameter_make_treatment_pallet@1 3.0))) (let ((.def_6 (or .def_5 .def_4))) (let ((.def_7 (= parameter_load_r@1 0.0))) (let ((.def_8 (= parameter_make_treatment_t@1 5.0))) (let ((.def_9 (= parameter_load_pallet@1 4.0))) (let ((.def_10 (= parameter_load_pallet@1 3.0))) (let ((.def_11 (or .def_10 .def_9))) (let ((.def_12 (= parameter_load_pos@1 2.0))) (let ((.def_13 (= parameter_load_pos@1 1.0))) (let ((.def_14 (or .def_13 .def_12))) (let ((.def_15 (= parameter_load_t@1 5.0))) (let ((.def_16 (<= fluent_battery_level_r0@1 100.0))) (let ((.def_17 (<= 0.0 fluent_battery_level_r0@1))) (let ((.def_18 (= parameter_unload_at_depot_pallet@1 4.0))) (let ((.def_19 (= parameter_unload_at_depot_pallet@1 3.0))) (let ((.def_20 (or .def_19 .def_18))) (let ((.def_21 (= parameter_unload_at_depot_r@1 0.0))) (let ((.def_22 (= parameter_unload_at_depot_pos@1 2.0))) (let ((.def_23 (= parameter_unload_at_depot_pos@1 1.0))) (let ((.def_24 (or .def_23 .def_22))) (let ((.def_25 (= parameter_move_r@1 0.0))) (let ((.def_26 (= parameter_move_frompos@1 2.0))) (let ((.def_27 (= parameter_move_frompos@1 1.0))) (let ((.def_28 (or .def_27 .def_26))) (let ((.def_29 (= parameter_move_topos@1 2.0))) (let ((.def_30 (= parameter_move_topos@1 1.0))) (let ((.def_31 (or .def_30 .def_29))) (let ((.def_32 (= parameter_load_at_depot_pallet@1 4.0))) (let ((.def_33 (= parameter_load_at_depot_pallet@1 3.0))) (let ((.def_34 (or .def_33 .def_32))) (let ((.def_35 (= parameter_load_at_depot_r@1 0.0))) (let ((.def_36 (= parameter_load_at_depot_pos@1 2.0))) (let ((.def_37 (= parameter_load_at_depot_pos@1 1.0))) (let ((.def_38 (or .def_37 .def_36))) (let ((.def_39 (and act_move@1 true .def_25))) (let ((.def_40 (= fluent_battery_level_r0@0 fluent_battery_level_r0@1))) (let ((.def_41 (not .def_40))) (let ((.def_42 (=> .def_41 .def_39))) (let ((.def_43 (and act_make_treatment@1 true .def_4 .def_0))) (let ((.def_44 (and act_unload_at_depot@1 true .def_18 .def_22))) (let ((.def_45 (and .def_44 .def_43))) (let ((.def_46 (not .def_45))) (let ((.def_47 (and act_load_at_depot@1 true .def_32 .def_36))) (let ((.def_48 (and .def_47 .def_43))) (let ((.def_49 (not .def_48))) (let ((.def_50 (and .def_47 .def_44))) (let ((.def_51 (not .def_50))) (let ((.def_52 (and act_load@1 true .def_9 .def_12))) (let ((.def_53 (and .def_52 .def_43))) (let ((.def_54 (not .def_53))) (let ((.def_55 (and .def_52 .def_44))) (let ((.def_56 (not .def_55))) (let ((.def_57 (and .def_52 .def_47))) (let ((.def_58 (not .def_57))) (let ((.def_59 (or .def_52 .def_47 .def_44 .def_43))) (let ((.def_60 (= fluent_pallet_at_plt1_p1@0 fluent_pallet_at_plt1_p1@1))) (let ((.def_61 (not .def_60))) (let ((.def_62 (=> .def_61 .def_59))) (let ((.def_63 (and act_make_treatment@1 true .def_5 .def_0))) (let ((.def_64 (and act_unload_at_depot@1 true .def_19 .def_22))) (let ((.def_65 (and .def_64 .def_63))) (let ((.def_66 (not .def_65))) (let ((.def_67 (and act_load_at_depot@1 true .def_33 .def_36))) (let ((.def_68 (and .def_67 .def_63))) (let ((.def_69 (not .def_68))) (let ((.def_70 (and .def_67 .def_64))) (let ((.def_71 (not .def_70))) (let ((.def_72 (and act_load@1 true .def_10 .def_12))) (let ((.def_73 (and .def_72 .def_63))) (let ((.def_74 (not .def_73))) (let ((.def_75 (and .def_72 .def_64))) (let ((.def_76 (not .def_75))) (let ((.def_77 (and .def_72 .def_67))) (let ((.def_78 (not .def_77))) (let ((.def_79 (or .def_72 .def_67 .def_64 .def_63))) (let ((.def_80 (= fluent_pallet_at_plt0_p1@0 fluent_pallet_at_plt0_p1@1))) (let ((.def_81 (not .def_80))) (let ((.def_82 (=> .def_81 .def_79))) (let ((.def_83 (and act_make_treatment@1 true .def_4 .def_1))) (let ((.def_84 (and act_unload_at_depot@1 true .def_18 .def_23))) (let ((.def_85 (and .def_84 .def_83))) (let ((.def_86 (not .def_85))) (let ((.def_87 (and act_load_at_depot@1 true .def_32 .def_37))) (let ((.def_88 (and .def_87 .def_83))) (let ((.def_89 (not .def_88))) (let ((.def_90 (and .def_87 .def_84))) (let ((.def_91 (not .def_90))) (let ((.def_92 (and act_load@1 true .def_9 .def_13))) (let ((.def_93 (and .def_92 .def_83))) (let ((.def_94 (not .def_93))) (let ((.def_95 (and .def_92 .def_84))) (let ((.def_96 (not .def_95))) (let ((.def_97 (and .def_92 .def_87))) (let ((.def_98 (not .def_97))) (let ((.def_99 (or .def_92 .def_87 .def_84 .def_83))) (let ((.def_100 (= fluent_pallet_at_plt1_p0@0 fluent_pallet_at_plt1_p0@1))) (let ((.def_101 (not .def_100))) (let ((.def_102 (=> .def_101 .def_99))) (let ((.def_103 (and act_make_treatment@1 true .def_5 .def_1))) (let ((.def_104 (and act_unload_at_depot@1 true .def_19 .def_23))) (let ((.def_105 (and .def_104 .def_103))) (let ((.def_106 (not .def_105))) (let ((.def_107 (and act_load_at_depot@1 true .def_33 .def_37))) (let ((.def_108 (and .def_107 .def_103))) (let ((.def_109 (not .def_108))) (let ((.def_110 (and .def_107 .def_104))) (let ((.def_111 (not .def_110))) (let ((.def_112 (and act_load@1 true .def_10 .def_13))) (let ((.def_113 (and .def_112 .def_103))) (let ((.def_114 (not .def_113))) (let ((.def_115 (and .def_112 .def_104))) (let ((.def_116 (not .def_115))) (let ((.def_117 (and .def_112 .def_107))) (let ((.def_118 (not .def_117))) (let ((.def_119 (or .def_112 .def_107 .def_104 .def_103))) (let ((.def_120 (= fluent_pallet_at_plt0_p0@0 fluent_pallet_at_plt0_p0@1))) (let ((.def_121 (not .def_120))) (let ((.def_122 (=> .def_121 .def_119))) (let ((.def_123 (and act_load@1 true .def_9 .def_15))) (let ((.def_124 (= fluent_treated_plt1_t0@0 fluent_treated_plt1_t0@1))) (let ((.def_125 (not .def_124))) (let ((.def_126 (=> .def_125 .def_123))) (let ((.def_127 (and act_load@1 true .def_10 .def_15))) (let ((.def_128 (= fluent_treated_plt0_t0@0 fluent_treated_plt0_t0@1))) (let ((.def_129 (not .def_128))) (let ((.def_130 (=> .def_129 .def_127))) (let ((.def_131 (and act_make_treatment@1 true .def_0))) (let ((.def_132 (and act_load@1 true .def_12))) (let ((.def_133 (and .def_132 .def_131))) (let ((.def_134 (not .def_133))) (let ((.def_135 (or .def_132 .def_131))) (let ((.def_136 (= fluent_position_free_p1@0 fluent_position_free_p1@1))) (let ((.def_137 (not .def_136))) (let ((.def_138 (=> .def_137 .def_135))) (let ((.def_139 (and act_make_treatment@1 true .def_1))) (let ((.def_140 (and act_load@1 true .def_13))) (let ((.def_141 (and .def_140 .def_139))) (let ((.def_142 (not .def_141))) (let ((.def_143 (or .def_140 .def_139))) (let ((.def_144 (= fluent_position_free_p0@0 fluent_position_free_p0@1))) (let ((.def_145 (not .def_144))) (let ((.def_146 (=> .def_145 .def_143))) (let ((.def_147 (+ t@1 10.0))) (let ((.def_148 (= t@1 .def_147))) (let ((.def_149 (and act_make_treatment@1 true .def_148 .def_4 .def_0 .def_8))) (let ((.def_150 (and act_load@1 true .def_9 .def_12 .def_15))) (let ((.def_151 (and .def_150 .def_149))) (let ((.def_152 (not .def_151))) (let ((.def_153 (or .def_150 .def_149))) (let ((.def_154 (= fluent_ready_plt1_p1_t0@0 fluent_ready_plt1_p1_t0@1))) (let ((.def_155 (not .def_154))) (let ((.def_156 (=> .def_155 .def_153))) (let ((.def_157 (and act_make_treatment@1 true .def_148 .def_5 .def_0 .def_8))) (let ((.def_158 (and act_load@1 true .def_10 .def_12 .def_15))) (let ((.def_159 (and .def_158 .def_157))) (let ((.def_160 (not .def_159))) (let ((.def_161 (or .def_158 .def_157))) (let ((.def_162 (= fluent_ready_plt0_p1_t0@0 fluent_ready_plt0_p1_t0@1))) (let ((.def_163 (not .def_162))) (let ((.def_164 (=> .def_163 .def_161))) (let ((.def_165 (and act_make_treatment@1 true .def_148 .def_4 .def_1 .def_8))) (let ((.def_166 (and act_load@1 true .def_9 .def_13 .def_15))) (let ((.def_167 (and .def_166 .def_165))) (let ((.def_168 (not .def_167))) (let ((.def_169 (or .def_166 .def_165))) (let ((.def_170 (= fluent_ready_plt1_p0_t0@0 fluent_ready_plt1_p0_t0@1))) (let ((.def_171 (not .def_170))) (let ((.def_172 (=> .def_171 .def_169))) (let ((.def_173 (and act_make_treatment@1 true .def_148 .def_5 .def_1 .def_8))) (let ((.def_174 (and act_load@1 true .def_10 .def_13 .def_15))) (let ((.def_175 (and .def_174 .def_173))) (let ((.def_176 (not .def_175))) (let ((.def_177 (or .def_174 .def_173))) (let ((.def_178 (= fluent_ready_plt0_p0_t0@0 fluent_ready_plt0_p0_t0@1))) (let ((.def_179 (not .def_178))) (let ((.def_180 (=> .def_179 .def_177))) (let ((.def_181 (and act_make_treatment@1 true .def_3 .def_4))) (let ((.def_182 (and act_unload_at_depot@1 true .def_21 .def_18))) (let ((.def_183 (and .def_182 .def_181))) (let ((.def_184 (not .def_183))) (let ((.def_185 (and act_load_at_depot@1 true .def_35 .def_32))) (let ((.def_186 (and .def_185 .def_181))) (let ((.def_187 (not .def_186))) (let ((.def_188 (and .def_185 .def_182))) (let ((.def_189 (not .def_188))) (let ((.def_190 (and act_load@1 true .def_7 .def_9))) (let ((.def_191 (and .def_190 .def_181))) (let ((.def_192 (not .def_191))) (let ((.def_193 (and .def_190 .def_182))) (let ((.def_194 (not .def_193))) (let ((.def_195 (and .def_190 .def_185))) (let ((.def_196 (not .def_195))) (let ((.def_197 (or .def_190 .def_185 .def_182 .def_181))) (let ((.def_198 (= fluent_robot_has_r0_plt1@0 fluent_robot_has_r0_plt1@1))) (let ((.def_199 (not .def_198))) (let ((.def_200 (=> .def_199 .def_197))) (let ((.def_201 (and act_make_treatment@1 true .def_3 .def_5))) (let ((.def_202 (and act_unload_at_depot@1 true .def_21 .def_19))) (let ((.def_203 (and .def_202 .def_201))) (let ((.def_204 (not .def_203))) (let ((.def_205 (and act_load_at_depot@1 true .def_35 .def_33))) (let ((.def_206 (and .def_205 .def_201))) (let ((.def_207 (not .def_206))) (let ((.def_208 (and .def_205 .def_202))) (let ((.def_209 (not .def_208))) (let ((.def_210 (and act_load@1 true .def_7 .def_10))) (let ((.def_211 (and .def_210 .def_201))) (let ((.def_212 (not .def_211))) (let ((.def_213 (and .def_210 .def_202))) (let ((.def_214 (not .def_213))) (let ((.def_215 (and .def_210 .def_205))) (let ((.def_216 (not .def_215))) (let ((.def_217 (or .def_210 .def_205 .def_202 .def_201))) (let ((.def_218 (= fluent_robot_has_r0_plt0@0 fluent_robot_has_r0_plt0@1))) (let ((.def_219 (not .def_218))) (let ((.def_220 (=> .def_219 .def_217))) (let ((.def_221 (and act_make_treatment@1 true .def_3))) (let ((.def_222 (and act_unload_at_depot@1 true .def_21))) (let ((.def_223 (and .def_222 .def_221))) (let ((.def_224 (not .def_223))) (let ((.def_225 (and act_load_at_depot@1 true .def_35))) (let ((.def_226 (and .def_225 .def_221))) (let ((.def_227 (not .def_226))) (let ((.def_228 (and .def_225 .def_222))) (let ((.def_229 (not .def_228))) (let ((.def_230 (and act_load@1 true .def_7))) (let ((.def_231 (and .def_230 .def_221))) (let ((.def_232 (not .def_231))) (let ((.def_233 (and .def_230 .def_222))) (let ((.def_234 (not .def_233))) (let ((.def_235 (and .def_230 .def_225))) (let ((.def_236 (not .def_235))) (let ((.def_237 (or .def_230 .def_225 .def_222 .def_221))) (let ((.def_238 (= fluent_robot_free_r0@0 fluent_robot_free_r0@1))) (let ((.def_239 (not .def_238))) (let ((.def_240 (=> .def_239 .def_237))) (let ((.def_241 (and act_move@1 true .def_25 .def_26))) (let ((.def_242 (and act_move@1 true .def_25 .def_29))) (let ((.def_243 (and .def_242 .def_241))) (let ((.def_244 (not .def_243))) (let ((.def_245 (or .def_242 .def_241))) (let ((.def_246 (= fluent_robot_at_r0_p1@0 fluent_robot_at_r0_p1@1))) (let ((.def_247 (not .def_246))) (let ((.def_248 (=> .def_247 .def_245))) (let ((.def_249 (and act_move@1 true .def_25 .def_27))) (let ((.def_250 (and act_move@1 true .def_25 .def_30))) (let ((.def_251 (and .def_250 .def_249))) (let ((.def_252 (not .def_251))) (let ((.def_253 (or .def_250 .def_249))) (let ((.def_254 (= fluent_robot_at_r0_p0@0 fluent_robot_at_r0_p0@1))) (let ((.def_255 (not .def_254))) (let ((.def_256 (=> .def_255 .def_253))) (let ((.def_257 (and .def_256 .def_252 .def_248 .def_244 .def_240 .def_236 .def_234 .def_232 .def_229 .def_227 .def_224 .def_220 .def_216 .def_214 .def_212 .def_209 .def_207 .def_204 .def_200 .def_196 .def_194 .def_192 .def_189 .def_187 .def_184 .def_180 .def_176 .def_172 .def_168 .def_164 .def_160 .def_156 .def_152 .def_146 .def_142 .def_138 .def_134 .def_130 .def_126 .def_122 .def_118 .def_116 .def_114 .def_111 .def_109 .def_106 .def_102 .def_98 .def_96 .def_94 .def_91 .def_89 .def_86 .def_82 .def_78 .def_76 .def_74 .def_71 .def_69 .def_66 .def_62 .def_58 .def_56 .def_54 .def_51 .def_49 .def_46 .def_42))) (let ((.def_258 (= .def_147 t@1))) (let ((.def_259 (and act_make_treatment@1 act_load@1 .def_258))) (let ((.def_260 (not .def_259))) (let ((.def_261 (= t@1 t@1))) (let ((.def_262 (and act_unload_at_depot@1 act_load@1 .def_261))) (let ((.def_263 (not .def_262))) (let ((.def_264 (and act_load_at_depot@1 act_load@1 .def_261))) (let ((.def_265 (not .def_264))) (let ((.def_266 (and act_make_treatment@1 act_load@1 .def_261))) (let ((.def_267 (not .def_266))) (let ((.def_268 (and act_make_treatment@1 act_load_at_depot@1 .def_261))) (let ((.def_269 (not .def_268))) (let ((.def_270 (+ t@1 dur_make_treatment@1))) (let ((.def_271 (= .def_270 t@1))) (let ((.def_272 (and act_make_treatment@1 act_load@1 .def_271))) (let ((.def_273 (not .def_272))) (let ((.def_274 (and act_make_treatment@1 act_unload_at_depot@1 .def_261))) (let ((.def_275 (not .def_274))) (let ((.def_276 (and act_unload_at_depot@1 act_load_at_depot@1 .def_261))) (let ((.def_277 (not .def_276))) (let ((.def_278 (and act_load_at_depot@1 act_move@1 .def_261))) (let ((.def_279 (not .def_278))) (let ((.def_280 (and act_make_treatment@1 act_move@1 .def_261))) (let ((.def_281 (not .def_280))) (let ((.def_282 (and act_unload_at_depot@1 act_move@1 .def_261))) (let ((.def_283 (not .def_282))) (let ((.def_284 (and act_move@1 act_load@1 .def_261))) (let ((.def_285 (not .def_284))) (let ((.def_286 (and .def_285 .def_283 .def_281 .def_279 .def_277 .def_275 .def_273 .def_269 .def_267 .def_265 .def_263 .def_260))) (let ((.def_287 (<= 0.0 t@1))) (let ((.def_288 (and .def_4 .def_1 .def_8))) (let ((.def_289 (ite .def_288 fluent_ready_plt1_p0_t0@1 fluent_ready_plt0_p0_t0@1))) (let ((.def_290 (and .def_5 .def_0 .def_8))) (let ((.def_291 (ite .def_290 fluent_ready_plt0_p1_t0@1 .def_289))) (let ((.def_292 (and .def_4 .def_0 .def_8))) (let ((.def_293 (ite .def_292 fluent_ready_plt1_p1_t0@1 .def_291))) (let ((.def_294 (= .def_293 true))) (let ((.def_295 (=> true .def_294))) (let ((.def_296 (and .def_148 .def_295))) (let ((.def_297 (= fluent_robot_free_r0@1 true))) (let ((.def_298 (=> true .def_297))) (let ((.def_299 (and .def_4 .def_1))) (let ((.def_300 (ite .def_299 fluent_pallet_at_plt1_p0@1 fluent_pallet_at_plt0_p0@1))) (let ((.def_301 (and .def_5 .def_0))) (let ((.def_302 (ite .def_301 fluent_pallet_at_plt0_p1@1 .def_300))) (let ((.def_303 (and .def_4 .def_0))) (let ((.def_304 (ite .def_303 fluent_pallet_at_plt1_p1@1 .def_302))) (let ((.def_305 (= .def_304 true))) (let ((.def_306 (=> true .def_305))) (let ((.def_307 (and .def_3 .def_4))) (let ((.def_308 (ite .def_307 fluent_robot_has_r0_plt1@1 fluent_robot_has_r0_plt0@1))) (let ((.def_309 (= .def_308 false))) (let ((.def_310 (=> true .def_309))) (let ((.def_311 (ite .def_0 fluent_position_free_p1@1 fluent_position_free_p0@1))) (let ((.def_312 (= .def_311 false))) (let ((.def_313 (=> true .def_312))) (let ((.def_314 (and .def_261 .def_313 .def_310 .def_306 .def_298))) (let ((.def_315 (ite .def_0 fluent_position_free_p1@0 fluent_position_free_p0@0))) (let ((.def_316 (and .def_4 .def_8))) (let ((.def_317 (ite .def_316 fluent_treated_plt1_t0@0 fluent_treated_plt0_t0@0))) (let ((.def_318 (and .def_317 .def_315))) (let ((.def_319 (<= .def_270 t@1))) (let ((.def_320 (< (- 1.0) .def_270))) (let ((.def_321 (and .def_320 .def_319))) (let ((.def_322 (=> .def_321 .def_318))) (let ((.def_323 (not .def_317))) (let ((.def_324 (ite .def_307 fluent_robot_has_r0_plt1@0 fluent_robot_has_r0_plt0@0))) (let ((.def_325 (and .def_3 .def_0))) (let ((.def_326 (ite .def_325 fluent_robot_at_r0_p1@0 fluent_robot_at_r0_p0@0))) (let ((.def_327 (and .def_0 .def_8))) (let ((.def_328 (ite .def_327 false true))) (let ((.def_329 (and .def_328 .def_315 .def_326 .def_324 .def_323))) (let ((.def_330 (<= t@1 t@1))) (let ((.def_331 (< (- 1.0) t@1))) (let ((.def_332 (and .def_331 .def_330))) (let ((.def_333 (=> .def_332 .def_329))) (let ((.def_334 (<= dur_make_treatment@1 20.0))) (let ((.def_335 (<= 20.0 dur_make_treatment@1))) (let ((.def_336 (and .def_335 .def_334))) (let ((.def_337 (and .def_336 .def_319 .def_333 .def_322 .def_314 .def_296))) (let ((.def_338 (=> act_make_treatment@1 .def_337))) (let ((.def_339 (and .def_21 .def_18))) (let ((.def_340 (ite .def_339 fluent_robot_has_r0_plt1@1 fluent_robot_has_r0_plt0@1))) (let ((.def_341 (= .def_340 false))) (let ((.def_342 (=> true .def_341))) (let ((.def_343 (and .def_18 .def_23))) (let ((.def_344 (ite .def_343 fluent_pallet_at_plt1_p0@1 fluent_pallet_at_plt0_p0@1))) (let ((.def_345 (and .def_19 .def_22))) (let ((.def_346 (ite .def_345 fluent_pallet_at_plt0_p1@1 .def_344))) (let ((.def_347 (and .def_18 .def_22))) (let ((.def_348 (ite .def_347 fluent_pallet_at_plt1_p1@1 .def_346))) (let ((.def_349 (= .def_348 true))) (let ((.def_350 (=> true .def_349))) (let ((.def_351 (ite .def_339 fluent_robot_has_r0_plt1@0 fluent_robot_has_r0_plt0@0))) (let ((.def_352 (and .def_21 .def_22))) (let ((.def_353 (ite .def_352 fluent_robot_at_r0_p1@0 fluent_robot_at_r0_p0@0))) (let ((.def_354 (ite .def_22 true false))) (let ((.def_355 (and .def_354 .def_353 .def_351 .def_350 .def_298 .def_342))) (let ((.def_356 (=> act_unload_at_depot@1 .def_355))) (let ((.def_357 (and .def_32 .def_37))) (let ((.def_358 (ite .def_357 fluent_pallet_at_plt1_p0@1 fluent_pallet_at_plt0_p0@1))) (let ((.def_359 (and .def_33 .def_36))) (let ((.def_360 (ite .def_359 fluent_pallet_at_plt0_p1@1 .def_358))) (let ((.def_361 (and .def_32 .def_36))) (let ((.def_362 (ite .def_361 fluent_pallet_at_plt1_p1@1 .def_360))) (let ((.def_363 (= .def_362 false))) (let ((.def_364 (=> true .def_363))) (let ((.def_365 (and .def_35 .def_32))) (let ((.def_366 (ite .def_365 fluent_robot_has_r0_plt1@1 fluent_robot_has_r0_plt0@1))) (let ((.def_367 (= .def_366 true))) (let ((.def_368 (=> true .def_367))) (let ((.def_369 (= fluent_robot_free_r0@1 false))) (let ((.def_370 (=> true .def_369))) (let ((.def_371 (ite .def_357 fluent_pallet_at_plt1_p0@0 fluent_pallet_at_plt0_p0@0))) (let ((.def_372 (ite .def_359 fluent_pallet_at_plt0_p1@0 .def_371))) (let ((.def_373 (ite .def_361 fluent_pallet_at_plt1_p1@0 .def_372))) (let ((.def_374 (and .def_35 .def_36))) (let ((.def_375 (ite .def_374 fluent_robot_at_r0_p1@0 fluent_robot_at_r0_p0@0))) (let ((.def_376 (ite .def_36 true false))) (let ((.def_377 (and .def_376 .def_375 fluent_robot_free_r0@0 .def_373 .def_370 .def_368 .def_364))) (let ((.def_378 (=> act_load_at_depot@1 .def_377))) (let ((.def_379 (ite .def_12 fluent_position_free_p1@1 fluent_position_free_p0@1))) (let ((.def_380 (= .def_379 true))) (let ((.def_381 (=> true .def_380))) (let ((.def_382 (and .def_9 .def_15))) (let ((.def_383 (ite .def_382 fluent_treated_plt1_t0@1 fluent_treated_plt0_t0@1))) (let ((.def_384 (= .def_383 true))) (let ((.def_385 (=> true .def_384))) (let ((.def_386 (and .def_7 .def_9))) (let ((.def_387 (ite .def_386 fluent_robot_has_r0_plt1@1 fluent_robot_has_r0_plt0@1))) (let ((.def_388 (= .def_387 true))) (let ((.def_389 (=> true .def_388))) (let ((.def_390 (and .def_9 .def_13))) (let ((.def_391 (ite .def_390 fluent_pallet_at_plt1_p0@1 fluent_pallet_at_plt0_p0@1))) (let ((.def_392 (and .def_10 .def_12))) (let ((.def_393 (ite .def_392 fluent_pallet_at_plt0_p1@1 .def_391))) (let ((.def_394 (and .def_9 .def_12))) (let ((.def_395 (ite .def_394 fluent_pallet_at_plt1_p1@1 .def_393))) (let ((.def_396 (= .def_395 false))) (let ((.def_397 (=> true .def_396))) (let ((.def_398 (and .def_9 .def_13 .def_15))) (let ((.def_399 (ite .def_398 fluent_ready_plt1_p0_t0@1 fluent_ready_plt0_p0_t0@1))) (let ((.def_400 (and .def_10 .def_12 .def_15))) (let ((.def_401 (ite .def_400 fluent_ready_plt0_p1_t0@1 .def_399))) (let ((.def_402 (and .def_9 .def_12 .def_15))) (let ((.def_403 (ite .def_402 fluent_ready_plt1_p1_t0@1 .def_401))) (let ((.def_404 (= .def_403 false))) (let ((.def_405 (=> true .def_404))) (let ((.def_406 (ite .def_390 fluent_pallet_at_plt1_p0@0 fluent_pallet_at_plt0_p0@0))) (let ((.def_407 (ite .def_392 fluent_pallet_at_plt0_p1@0 .def_406))) (let ((.def_408 (ite .def_394 fluent_pallet_at_plt1_p1@0 .def_407))) (let ((.def_409 (and .def_7 .def_12))) (let ((.def_410 (ite .def_409 fluent_robot_at_r0_p1@0 fluent_robot_at_r0_p0@0))) (let ((.def_411 (ite .def_398 fluent_ready_plt1_p0_t0@0 fluent_ready_plt0_p0_t0@0))) (let ((.def_412 (ite .def_400 fluent_ready_plt0_p1_t0@0 .def_411))) (let ((.def_413 (ite .def_402 fluent_ready_plt1_p1_t0@0 .def_412))) (let ((.def_414 (and .def_413 .def_410 fluent_robot_free_r0@0 .def_408 .def_370 .def_405 .def_397 .def_389 .def_385 .def_381))) (let ((.def_415 (=> act_load@1 .def_414))) (let ((.def_416 (and .def_26 .def_30))) (let ((.def_417 (ite .def_416 1.0 0.0))) (let ((.def_418 (and .def_27 .def_29))) (let ((.def_419 (ite .def_418 1.0 .def_417))) (let ((.def_420 (and .def_26 .def_29))) (let ((.def_421 (ite .def_420 0.0 .def_419))) (let ((.def_422 (- fluent_battery_level_r0@0 .def_421))) (let ((.def_423 (= fluent_battery_level_r0@1 .def_422))) (let ((.def_424 (=> true .def_423))) (let ((.def_425 (and .def_25 .def_26))) (let ((.def_426 (ite .def_425 fluent_robot_at_r0_p1@1 fluent_robot_at_r0_p0@1))) (let ((.def_427 (= .def_426 false))) (let ((.def_428 (=> true .def_427))) (let ((.def_429 (and .def_25 .def_29))) (let ((.def_430 (ite .def_429 fluent_robot_at_r0_p1@1 fluent_robot_at_r0_p0@1))) (let ((.def_431 (= .def_430 true))) (let ((.def_432 (=> true .def_431))) (let ((.def_433 (<= .def_421 fluent_battery_level_r0@0))) (let ((.def_434 (ite .def_425 fluent_robot_at_r0_p1@0 fluent_robot_at_r0_p0@0))) (let ((.def_435 (= parameter_move_frompos@1 parameter_move_topos@1))) (let ((.def_436 (not .def_435))) (let ((.def_437 (and .def_436 .def_434 .def_433 .def_432 .def_428 .def_424))) (let ((.def_438 (=> act_move@1 .def_437))) (let ((.def_439 (<= fluent_battery_level_r0@0 100.0))) (let ((.def_440 (<= 0.0 fluent_battery_level_r0@0))) (let ((.def_441 (= false false))) (let ((.def_442 (= fluent_pallet_at_plt1_p0@0 false))) (let ((.def_443 (= fluent_pallet_at_plt0_p0@0 false))) (let ((.def_444 (= fluent_treated_plt1_t0@0 false))) (let ((.def_445 (= fluent_treated_plt0_t0@0 false))) (let ((.def_446 (= fluent_ready_plt1_p1_t0@0 false))) (let ((.def_447 (= fluent_ready_plt0_p1_t0@0 false))) (let ((.def_448 (= fluent_ready_plt1_p0_t0@0 false))) (let ((.def_449 (= fluent_ready_plt0_p0_t0@0 false))) (let ((.def_450 (= fluent_robot_has_r0_plt1@0 false))) (let ((.def_451 (= fluent_robot_has_r0_plt0@0 false))) (let ((.def_452 (= fluent_robot_at_r0_p0@0 false))) (let ((.def_453 (= true true))) (let ((.def_454 (= fluent_position_free_p1@0 true))) (let ((.def_455 (= fluent_position_free_p0@0 true))) (let ((.def_456 (= 0.0 0.0))) (let ((.def_457 (= 1.0 1.0))) (let ((.def_458 (= fluent_battery_level_r0@0 8.0))) (let ((.def_459 (= fluent_pallet_at_plt1_p1@0 true))) (let ((.def_460 (= fluent_pallet_at_plt0_p1@0 true))) (let ((.def_461 (= fluent_robot_free_r0@0 true))) (let ((.def_462 (= fluent_robot_at_r0_p1@0 true))) (let ((.def_463 (and .def_462 .def_461 .def_460 .def_459 .def_458 .def_456 .def_457 .def_457 .def_456 .def_453 .def_455 .def_454 .def_453 .def_452 .def_451 .def_450 .def_449 .def_448 .def_447 .def_446 .def_445 .def_444 .def_443 .def_442 .def_441 .def_441 .def_440 .def_439))) (let ((.def_464 (and .def_463 .def_438 .def_415 .def_378 .def_356 .def_338 .def_287 .def_286 true .def_257 .def_38 .def_35 .def_34 .def_31 .def_28 .def_25 .def_24 .def_21 .def_20 .def_17 .def_16 .def_15 .def_14 .def_11 .def_8 .def_7 .def_6 .def_3 .def_2 true))) .def_464))))))))))))))))))))))))))))))))))))))))))))))))))))))))))))))))))))))))))))))))))))))))))))))))))))))))))))))))))))))))))))))))))))))))))))))))))))))))))))))))))))))))))))))))))))))))))))))))))))))))))))))))))))))))))))))))))))))))))))))))))))))))))))))))))))))))))))))))))))))))))))))))))))))))))))))))))))))))))))))))))))))))))))))))))))))))))))))))))))))))))))))))))))))))))))))))))))))))))))))))))))))))))))))))))))))))))))))))))))))))))))))))))))))))))))))))))
(check-sat)

--------------------------------------------------------------------------------
